letting n =  10
letting blocks =  [[1, 7], [1, 8], [2, 2], [2, 3], [2, 6], [2, 7], [2, 9], [3, 4], [5, 3], [5, 4], [5, 5], [5, 6], [6, 2], [7, 1], [7, 5], [7, 6], [8, 1], [8, 2], [8, 6], [8, 10], [9, 3], [9, 4], [9, 5], [9, 6], [9, 7], [10, 6]]
